container_length = 30;
container_width = 45;
container_height = 15;
n = 7;
boxes = [|4, 3, 3, 24
         |4, 4, 1, 10
         |3, 1, 2, 11
         |9, 2, 3, 14
         |8, 1, 3, 6
         |15, 1, 2, 20
         |9, 2, 2, 15|];
